100 2449
1 2 1
1 3 1
1 5 1
1 6 1
1 7 1
1 8 1
1 9 1
1 12 1
1 14 1
1 15 1
1 16 1
1 19 1
1 20 1
1 21 1
1 22 1
1 23 1
1 25 1
1 26 1
1 27 1
1 28 1
1 29 1
1 31 1
1 32 1
1 33 1
1 36 1
1 38 1
1 39 1
1 41 1
1 44 1
1 46 1
1 54 1
1 56 1
1 58 1
1 59 1
1 60 1
1 62 1
1 64 1
1 65 1
1 67 1
1 68 1
1 72 1
1 74 1
1 75 1
1 76 1
1 77 1
1 80 1
1 81 1
1 82 1
1 84 1
1 86 1
1 88 1
1 89 1
1 91 1
1 94 1
1 95 1
1 96 1
1 99 1
2 3 1
2 4 1
2 5 1
2 6 1
2 8 1
2 12 1
2 13 1
2 15 1
2 16 1
2 17 1
2 18 1
2 20 1
2 22 1
2 26 1
2 31 1
2 32 1
2 34 1
2 35 1
2 37 1
2 38 1
2 43 1
2 44 1
2 46 1
2 47 1
2 49 1
2 50 1
2 51 1
2 52 1
2 54 1
2 57 1
2 58 1
2 61 1
2 66 1
2 74 1
2 76 1
2 77 1
2 78 1
2 80 1
2 82 1
2 85 1
2 86 1
2 87 1
2 88 1
2 93 1
2 94 1
2 97 1
2 99 1
2 100 1
3 4 1
3 6 1
3 11 1
3 17 1
3 20 1
3 21 1
3 23 1
3 26 1
3 28 1
3 30 1
3 33 1
3 36 1
3 41 1
3 42 1
3 45 1
3 48 1
3 51 1
3 52 1
3 53 1
3 54 1
3 55 1
3 56 1
3 58 1
3 61 1
3 63 1
3 66 1
3 67 1
3 68 1
3 69 1
3 71 1
3 72 1
3 76 1
3 77 1
3 82 1
3 85 1
3 89 1
3 92 1
3 96 1
4 5 1
4 6 1
4 8 1
4 12 1
4 14 1
4 15 1
4 16 1
4 17 1
4 18 1
4 20 1
4 21 1
4 22 1
4 23 1
4 24 1
4 25 1
4 26 1
4 31 1
4 32 1
4 35 1
4 36 1
4 37 1
4 39 1
4 40 1
4 41 1
4 43 1
4 44 1
4 46 1
4 47 1
4 48 1
4 50 1
4 51 1
4 52 1
4 55 1
4 56 1
4 57 1
4 59 1
4 64 1
4 66 1
4 67 1
4 68 1
4 69 1
4 73 1
4 74 1
4 75 1
4 77 1
4 79 1
4 82 1
4 83 1
4 86 1
4 88 1
4 89 1
4 91 1
4 92 1
4 93 1
4 97 1
4 99 1
4 100 1
5 6 1
5 7 1
5 12 1
5 13 1
5 14 1
5 15 1
5 17 1
5 18 1
5 20 1
5 21 1
5 22 1
5 23 1
5 25 1
5 26 1
5 27 1
5 28 1
5 32 1
5 34 1
5 35 1
5 45 1
5 47 1
5 48 1
5 52 1
5 55 1
5 56 1
5 57 1
5 63 1
5 64 1
5 66 1
5 69 1
5 70 1
5 71 1
5 78 1
5 82 1
5 84 1
5 85 1
5 86 1
5 87 1
5 88 1
5 89 1
5 90 1
5 92 1
5 94 1
5 95 1
5 96 1
5 97 1
5 100 1
6 8 1
6 9 1
6 14 1
6 15 1
6 21 1
6 23 1
6 24 1
6 25 1
6 26 1
6 29 1
6 30 1
6 36 1
6 37 1
6 39 1
6 42 1
6 44 1
6 45 1
6 46 1
6 49 1
6 50 1
6 51 1
6 54 1
6 58 1
6 59 1
6 61 1
6 65 1
6 69 1
6 71 1
6 73 1
6 74 1
6 75 1
6 76 1
6 78 1
6 82 1
6 84 1
6 85 1
6 86 1
6 89 1
6 90 1
6 91 1
6 93 1
6 94 1
6 95 1
6 96 1
6 97 1
6 99 1
6 100 1
7 12 1
7 13 1
7 16 1
7 17 1
7 18 1
7 19 1
7 21 1
7 23 1
7 24 1
7 25 1
7 26 1
7 27 1
7 30 1
7 32 1
7 35 1
7 38 1
7 39 1
7 40 1
7 41 1
7 43 1
7 45 1
7 47 1
7 49 1
7 51 1
7 56 1
7 57 1
7 58 1
7 59 1
7 61 1
7 62 1
7 64 1
7 65 1
7 66 1
7 67 1
7 71 1
7 72 1
7 73 1
7 74 1
7 75 1
7 77 1
7 80 1
7 81 1
7 83 1
7 88 1
7 91 1
7 92 1
7 95 1
7 96 1
7 97 1
7 100 1
8 11 1
8 12 1
8 14 1
8 18 1
8 20 1
8 22 1
8 23 1
8 24 1
8 26 1
8 29 1
8 30 1
8 33 1
8 37 1
8 39 1
8 41 1
8 43 1
8 44 1
8 48 1
8 49 1
8 50 1
8 52 1
8 54 1
8 55 1
8 58 1
8 61 1
8 62 1
8 63 1
8 64 1
8 68 1
8 70 1
8 72 1
8 75 1
8 78 1
8 79 1
8 81 1
8 82 1
8 83 1
8 85 1
8 86 1
8 87 1
8 88 1
8 89 1
8 91 1
8 93 1
8 94 1
8 95 1
8 100 1
9 15 1
9 16 1
9 18 1
9 21 1
9 22 1
9 23 1
9 26 1
9 27 1
9 29 1
9 30 1
9 31 1
9 35 1
9 37 1
9 40 1
9 41 1
9 42 1
9 43 1
9 45 1
9 47 1
9 48 1
9 51 1
9 52 1
9 54 1
9 55 1
9 56 1
9 57 1
9 58 1
9 67 1
9 68 1
9 69 1
9 75 1
9 80 1
9 83 1
9 85 1
9 88 1
9 91 1
9 95 1
9 96 1
9 97 1
9 99 1
9 100 1
10 11 1
10 12 1
10 15 1
10 16 1
10 19 1
10 24 1
10 25 1
10 27 1
10 29 1
10 30 1
10 32 1
10 38 1
10 39 1
10 40 1
10 44 1
10 45 1
10 46 1
10 50 1
10 52 1
10 53 1
10 55 1
10 56 1
10 58 1
10 60 1
10 65 1
10 66 1
10 67 1
10 70 1
10 73 1
10 78 1
10 80 1
10 81 1
10 86 1
10 88 1
10 91 1
10 92 1
10 93 1
10 95 1
10 98 1
10 100 1
11 13 1
11 16 1
11 19 1
11 21 1
11 23 1
11 26 1
11 31 1
11 34 1
11 35 1
11 36 1
11 37 1
11 38 1
11 40 1
11 41 1
11 43 1
11 45 1
11 46 1
11 48 1
11 49 1
11 52 1
11 54 1
11 56 1
11 61 1
11 65 1
11 70 1
11 73 1
11 74 1
11 77 1
11 78 1
11 80 1
11 81 1
11 82 1
11 85 1
11 87 1
11 90 1
11 92 1
11 97 1
11 98 1
11 99 1
12 13 1
12 15 1
12 17 1
12 18 1
12 24 1
12 25 1
12 26 1
12 27 1
12 28 1
12 32 1
12 34 1
12 37 1
12 38 1
12 42 1
12 44 1
12 45 1
12 47 1
12 48 1
12 51 1
12 52 1
12 53 1
12 55 1
12 57 1
12 58 1
12 59 1
12 60 1
12 62 1
12 63 1
12 66 1
12 67 1
12 68 1
12 69 1
12 74 1
12 80 1
12 85 1
12 86 1
12 90 1
12 91 1
12 92 1
12 94 1
12 97 1
12 98 1
12 99 1
12 100 1
13 14 1
13 17 1
13 18 1
13 21 1
13 25 1
13 26 1
13 29 1
13 33 1
13 34 1
13 36 1
13 39 1
13 41 1
13 43 1
13 46 1
13 47 1
13 48 1
13 49 1
13 50 1
13 57 1
13 58 1
13 63 1
13 66 1
13 68 1
13 73 1
13 74 1
13 75 1
13 77 1
13 81 1
13 84 1
13 85 1
13 86 1
13 92 1
13 93 1
13 94 1
13 96 1
13 97 1
13 100 1
14 17 1
14 18 1
14 20 1
14 21 1
14 22 1
14 23 1
14 26 1
14 30 1
14 33 1
14 34 1
14 35 1
14 36 1
14 39 1
14 42 1
14 43 1
14 45 1
14 46 1
14 47 1
14 49 1
14 50 1
14 51 1
14 55 1
14 56 1
14 59 1
14 60 1
14 61 1
14 64 1
14 66 1
14 67 1
14 72 1
14 74 1
14 75 1
14 76 1
14 79 1
14 80 1
14 82 1
14 83 1
14 88 1
14 89 1
14 90 1
14 95 1
14 100 1
15 16 1
15 17 1
15 18 1
15 20 1
15 21 1
15 22 1
15 24 1
15 26 1
15 28 1
15 30 1
15 31 1
15 34 1
15 37 1
15 40 1
15 41 1
15 43 1
15 45 1
15 47 1
15 50 1
15 51 1
15 55 1
15 56 1
15 57 1
15 58 1
15 60 1
15 61 1
15 65 1
15 69 1
15 70 1
15 74 1
15 75 1
15 77 1
15 79 1
15 80 1
15 82 1
15 84 1
15 87 1
15 88 1
15 92 1
15 95 1
15 97 1
15 98 1
15 99 1
15 100 1
16 17 1
16 20 1
16 21 1
16 22 1
16 24 1
16 29 1
16 30 1
16 31 1
16 32 1
16 33 1
16 37 1
16 38 1
16 40 1
16 41 1
16 42 1
16 44 1
16 45 1
16 47 1
16 56 1
16 58 1
16 61 1
16 64 1
16 69 1
16 71 1
16 73 1
16 74 1
16 76 1
16 77 1
16 80 1
16 84 1
16 85 1
16 86 1
16 87 1
16 90 1
16 91 1
16 92 1
16 98 1
16 100 1
17 20 1
17 22 1
17 26 1
17 27 1
17 30 1
17 35 1
17 36 1
17 37 1
17 38 1
17 47 1
17 48 1
17 51 1
17 52 1
17 53 1
17 54 1
17 58 1
17 59 1
17 61 1
17 62 1
17 63 1
17 65 1
17 67 1
17 69 1
17 72 1
17 73 1
17 74 1
17 75 1
17 77 1
17 81 1
17 83 1
17 84 1
17 85 1
17 87 1
17 88 1
17 93 1
17 95 1
17 97 1
17 98 1
17 100 1
18 19 1
18 21 1
18 22 1
18 23 1
18 26 1
18 28 1
18 29 1
18 30 1
18 33 1
18 34 1
18 35 1
18 36 1
18 38 1
18 39 1
18 41 1
18 42 1
18 43 1
18 44 1
18 47 1
18 48 1
18 50 1
18 55 1
18 56 1
18 58 1
18 62 1
18 63 1
18 64 1
18 65 1
18 66 1
18 68 1
18 71 1
18 73 1
18 74 1
18 75 1
18 76 1
18 77 1
18 79 1
18 82 1
18 84 1
18 86 1
18 88 1
18 90 1
18 95 1
18 97 1
18 99 1
18 100 1
19 23 1
19 27 1
19 28 1
19 29 1
19 30 1
19 31 1
19 32 1
19 34 1
19 35 1
19 36 1
19 37 1
19 38 1
19 41 1
19 42 1
19 43 1
19 46 1
19 47 1
19 48 1
19 49 1
19 50 1
19 51 1
19 53 1
19 54 1
19 55 1
19 56 1
19 57 1
19 60 1
19 68 1
19 69 1
19 72 1
19 73 1
19 74 1
19 75 1
19 76 1
19 77 1
19 80 1
19 84 1
19 85 1
19 87 1
19 89 1
19 90 1
19 91 1
19 92 1
19 96 1
20 21 1
20 22 1
20 23 1
20 27 1
20 32 1
20 34 1
20 35 1
20 37 1
20 38 1
20 40 1
20 42 1
20 43 1
20 44 1
20 46 1
20 50 1
20 51 1
20 53 1
20 58 1
20 60 1
20 61 1
20 65 1
20 66 1
20 67 1
20 68 1
20 69 1
20 71 1
20 73 1
20 80 1
20 84 1
20 89 1
20 90 1
20 91 1
20 92 1
20 94 1
20 96 1
20 97 1
20 98 1
20 99 1
20 100 1
21 23 1
21 25 1
21 27 1
21 28 1
21 29 1
21 30 1
21 31 1
21 32 1
21 33 1
21 35 1
21 36 1
21 37 1
21 38 1
21 39 1
21 42 1
21 43 1
21 47 1
21 48 1
21 50 1
21 51 1
21 52 1
21 53 1
21 54 1
21 56 1
21 57 1
21 59 1
21 63 1
21 64 1
21 65 1
21 67 1
21 70 1
21 72 1
21 73 1
21 74 1
21 78 1
21 80 1
21 81 1
21 82 1
21 83 1
21 84 1
21 85 1
21 87 1
21 88 1
21 89 1
21 92 1
21 94 1
21 96 1
21 99 1
21 100 1
22 24 1
22 30 1
22 35 1
22 39 1
22 40 1
22 41 1
22 45 1
22 47 1
22 50 1
22 51 1
22 54 1
22 55 1
22 58 1
22 60 1
22 63 1
22 65 1
22 68 1
22 72 1
22 73 1
22 75 1
22 76 1
22 77 1
22 79 1
22 84 1
22 87 1
22 90 1
22 91 1
22 92 1
22 93 1
22 94 1
22 98 1
22 99 1
22 100 1
23 26 1
23 28 1
23 29 1
23 30 1
23 31 1
23 32 1
23 33 1
23 34 1
23 37 1
23 38 1
23 40 1
23 41 1
23 42 1
23 43 1
23 44 1
23 45 1
23 46 1
23 48 1
23 49 1
23 50 1
23 53 1
23 54 1
23 56 1
23 57 1
23 59 1
23 61 1
23 65 1
23 66 1
23 69 1
23 73 1
23 74 1
23 75 1
23 76 1
23 77 1
23 79 1
23 84 1
23 85 1
23 86 1
23 87 1
23 90 1
23 91 1
23 94 1
23 95 1
23 96 1
23 98 1
23 99 1
23 100 1
24 25 1
24 27 1
24 28 1
24 30 1
24 31 1
24 32 1
24 33 1
24 35 1
24 38 1
24 39 1
24 43 1
24 44 1
24 46 1
24 48 1
24 52 1
24 53 1
24 54 1
24 55 1
24 58 1
24 61 1
24 66 1
24 69 1
24 72 1
24 73 1
24 74 1
24 78 1
24 80 1
24 87 1
24 89 1
24 91 1
24 92 1
24 93 1
24 96 1
24 98 1
24 100 1
25 26 1
25 27 1
25 28 1
25 31 1
25 35 1
25 36 1
25 38 1
25 41 1
25 44 1
25 46 1
25 48 1
25 49 1
25 50 1
25 52 1
25 53 1
25 54 1
25 57 1
25 59 1
25 61 1
25 65 1
25 66 1
25 67 1
25 68 1
25 69 1
25 72 1
25 75 1
25 80 1
25 82 1
25 87 1
25 89 1
25 91 1
25 98 1
25 100 1
26 28 1
26 31 1
26 32 1
26 33 1
26 35 1
26 40 1
26 43 1
26 48 1
26 49 1
26 51 1
26 56 1
26 57 1
26 59 1
26 60 1
26 66 1
26 68 1
26 69 1
26 71 1
26 77 1
26 78 1
26 79 1
26 81 1
26 82 1
26 85 1
26 86 1
26 90 1
26 91 1
26 92 1
26 95 1
26 96 1
26 98 1
26 100 1
27 28 1
27 31 1
27 32 1
27 35 1
27 36 1
27 38 1
27 40 1
27 41 1
27 44 1
27 45 1
27 46 1
27 47 1
27 51 1
27 55 1
27 60 1
27 64 1
27 65 1
27 66 1
27 67 1
27 69 1
27 70 1
27 72 1
27 73 1
27 74 1
27 75 1
27 79 1
27 80 1
27 88 1
27 91 1
27 93 1
27 95 1
27 96 1
27 97 1
28 29 1
28 30 1
28 34 1
28 35 1
28 37 1
28 41 1
28 42 1
28 43 1
28 46 1
28 49 1
28 50 1
28 52 1
28 55 1
28 56 1
28 58 1
28 59 1
28 61 1
28 63 1
28 64 1
28 65 1
28 67 1
28 69 1
28 70 1
28 75 1
28 77 1
28 79 1
28 81 1
28 82 1
28 83 1
28 85 1
28 86 1
28 87 1
28 88 1
28 90 1
28 92 1
28 93 1
28 96 1
28 99 1
29 31 1
29 36 1
29 37 1
29 38 1
29 39 1
29 42 1
29 47 1
29 50 1
29 51 1
29 52 1
29 57 1
29 60 1
29 62 1
29 63 1
29 64 1
29 65 1
29 66 1
29 67 1
29 70 1
29 71 1
29 74 1
29 75 1
29 79 1
29 80 1
29 82 1
29 83 1
29 84 1
29 85 1
29 86 1
29 92 1
29 97 1
29 99 1
29 100 1
30 32 1
30 33 1
30 35 1
30 39 1
30 43 1
30 45 1
30 46 1
30 49 1
30 50 1
30 51 1
30 52 1
30 53 1
30 58 1
30 59 1
30 62 1
30 63 1
30 65 1
30 66 1
30 67 1
30 68 1
30 69 1
30 70 1
30 75 1
30 77 1
30 80 1
30 81 1
30 82 1
30 86 1
30 87 1
30 89 1
30 91 1
30 93 1
30 97 1
30 98 1
31 32 1
31 33 1
31 34 1
31 35 1
31 36 1
31 37 1
31 38 1
31 39 1
31 40 1
31 42 1
31 44 1
31 45 1
31 47 1
31 49 1
31 50 1
31 55 1
31 56 1
31 57 1
31 59 1
31 61 1
31 62 1
31 63 1
31 64 1
31 65 1
31 66 1
31 67 1
31 68 1
31 69 1
31 72 1
31 73 1
31 75 1
31 76 1
31 78 1
31 81 1
31 82 1
31 86 1
31 87 1
31 90 1
31 91 1
31 92 1
31 93 1
31 94 1
31 95 1
31 96 1
32 36 1
32 37 1
32 38 1
32 39 1
32 42 1
32 44 1
32 46 1
32 47 1
32 48 1
32 49 1
32 50 1
32 51 1
32 55 1
32 58 1
32 59 1
32 60 1
32 64 1
32 65 1
32 68 1
32 69 1
32 74 1
32 75 1
32 80 1
32 81 1
32 84 1
32 85 1
32 86 1
32 92 1
32 93 1
32 96 1
32 99 1
32 100 1
33 34 1
33 36 1
33 37 1
33 39 1
33 43 1
33 44 1
33 52 1
33 53 1
33 54 1
33 55 1
33 56 1
33 58 1
33 60 1
33 61 1
33 64 1
33 65 1
33 66 1
33 69 1
33 70 1
33 71 1
33 74 1
33 75 1
33 80 1
33 81 1
33 82 1
33 84 1
33 85 1
33 86 1
33 90 1
33 94 1
33 95 1
33 99 1
34 35 1
34 38 1
34 39 1
34 44 1
34 46 1
34 48 1
34 53 1
34 56 1
34 59 1
34 60 1
34 62 1
34 64 1
34 65 1
34 67 1
34 68 1
34 72 1
34 73 1
34 75 1
34 76 1
34 77 1
34 81 1
34 84 1
34 85 1
34 86 1
34 87 1
34 89 1
34 92 1
34 93 1
34 96 1
34 98 1
34 99 1
35 38 1
35 39 1
35 43 1
35 46 1
35 47 1
35 48 1
35 52 1
35 53 1
35 56 1
35 58 1
35 59 1
35 60 1
35 63 1
35 65 1
35 67 1
35 68 1
35 70 1
35 74 1
35 75 1
35 76 1
35 78 1
35 79 1
35 80 1
35 81 1
35 86 1
35 87 1
35 88 1
35 91 1
35 92 1
35 93 1
35 94 1
35 97 1
35 99 1
35 100 1
36 39 1
36 40 1
36 46 1
36 47 1
36 48 1
36 49 1
36 50 1
36 51 1
36 52 1
36 53 1
36 54 1
36 56 1
36 58 1
36 61 1
36 64 1
36 65 1
36 66 1
36 67 1
36 69 1
36 71 1
36 72 1
36 74 1
36 75 1
36 78 1
36 81 1
36 82 1
36 83 1
36 88 1
36 89 1
36 90 1
36 93 1
36 94 1
36 95 1
36 96 1
36 98 1
36 99 1
36 100 1
37 39 1
37 41 1
37 43 1
37 44 1
37 45 1
37 46 1
37 48 1
37 50 1
37 53 1
37 55 1
37 58 1
37 60 1
37 61 1
37 63 1
37 65 1
37 71 1
37 77 1
37 78 1
37 82 1
37 83 1
37 92 1
37 93 1
37 94 1
37 95 1
37 99 1
37 100 1
38 45 1
38 48 1
38 50 1
38 53 1
38 54 1
38 58 1
38 59 1
38 61 1
38 62 1
38 65 1
38 67 1
38 72 1
38 73 1
38 75 1
38 76 1
38 77 1
38 79 1
38 82 1
38 85 1
38 92 1
38 93 1
38 94 1
38 95 1
38 96 1
38 97 1
38 98 1
38 100 1
39 43 1
39 44 1
39 45 1
39 50 1
39 53 1
39 56 1
39 59 1
39 61 1
39 62 1
39 63 1
39 65 1
39 66 1
39 69 1
39 73 1
39 74 1
39 75 1
39 77 1
39 82 1
39 86 1
39 88 1
39 91 1
39 94 1
39 95 1
39 97 1
39 98 1
39 100 1
40 41 1
40 42 1
40 43 1
40 44 1
40 45 1
40 48 1
40 50 1
40 51 1
40 52 1
40 56 1
40 57 1
40 58 1
40 61 1
40 65 1
40 70 1
40 71 1
40 74 1
40 76 1
40 77 1
40 81 1
40 84 1
40 86 1
40 88 1
40 89 1
40 91 1
40 93 1
40 96 1
40 98 1
40 99 1
41 42 1
41 44 1
41 47 1
41 49 1
41 51 1
41 52 1
41 56 1
41 58 1
41 59 1
41 60 1
41 62 1
41 63 1
41 64 1
41 67 1
41 69 1
41 70 1
41 71 1
41 76 1
41 79 1
41 80 1
41 83 1
41 85 1
41 87 1
41 89 1
41 91 1
41 92 1
41 94 1
41 96 1
41 98 1
41 99 1
41 100 1
42 43 1
42 44 1
42 46 1
42 47 1
42 48 1
42 49 1
42 50 1
42 51 1
42 53 1
42 55 1
42 57 1
42 61 1
42 64 1
42 67 1
42 68 1
42 69 1
42 74 1
42 80 1
42 85 1
42 86 1
42 88 1
42 89 1
42 90 1
42 99 1
43 45 1
43 47 1
43 48 1
43 49 1
43 50 1
43 51 1
43 52 1
43 53 1
43 56 1
43 57 1
43 59 1
43 62 1
43 71 1
43 77 1
43 78 1
43 80 1
43 82 1
43 84 1
43 87 1
43 88 1
43 90 1
43 93 1
43 94 1
43 95 1
43 97 1
43 98 1
43 99 1
43 100 1
44 46 1
44 49 1
44 50 1
44 52 1
44 57 1
44 58 1
44 60 1
44 62 1
44 63 1
44 66 1
44 68 1
44 69 1
44 71 1
44 73 1
44 74 1
44 75 1
44 78 1
44 80 1
44 81 1
44 84 1
44 85 1
44 95 1
44 96 1
44 97 1
44 100 1
45 48 1
45 52 1
45 53 1
45 54 1
45 60 1
45 61 1
45 62 1
45 65 1
45 68 1
45 69 1
45 70 1
45 71 1
45 75 1
45 77 1
45 78 1
45 79 1
45 80 1
45 81 1
45 82 1
45 85 1
45 87 1
45 88 1
45 89 1
45 94 1
45 95 1
45 98 1
45 100 1
46 49 1
46 50 1
46 54 1
46 56 1
46 58 1
46 60 1
46 62 1
46 64 1
46 65 1
46 66 1
46 73 1
46 74 1
46 76 1
46 77 1
46 78 1
46 79 1
46 81 1
46 82 1
46 85 1
46 93 1
46 98 1
47 51 1
47 52 1
47 53 1
47 54 1
47 56 1
47 57 1
47 59 1
47 61 1
47 62 1
47 65 1
47 72 1
47 73 1
47 75 1
47 77 1
47 81 1
47 82 1
47 83 1
47 86 1
47 87 1
47 89 1
47 92 1
47 93 1
47 94 1
47 95 1
47 96 1
47 100 1
48 53 1
48 55 1
48 62 1
48 65 1
48 66 1
48 69 1
48 70 1
48 75 1
48 76 1
48 77 1
48 78 1
48 80 1
48 81 1
48 82 1
48 83 1
48 85 1
48 87 1
48 88 1
48 89 1
48 91 1
48 92 1
49 50 1
49 52 1
49 55 1
49 56 1
49 57 1
49 58 1
49 60 1
49 63 1
49 64 1
49 66 1
49 68 1
49 70 1
49 71 1
49 72 1
49 73 1
49 75 1
49 76 1
49 79 1
49 81 1
49 83 1
49 84 1
49 86 1
49 89 1
49 90 1
49 96 1
49 98 1
49 99 1
50 51 1
50 52 1
50 53 1
50 54 1
50 60 1
50 62 1
50 63 1
50 65 1
50 66 1
50 70 1
50 71 1
50 72 1
50 74 1
50 75 1
50 76 1
50 78 1
50 80 1
50 81 1
50 84 1
50 86 1
50 87 1
50 91 1
50 92 1
50 93 1
50 100 1
51 53 1
51 54 1
51 55 1
51 56 1
51 59 1
51 63 1
51 69 1
51 70 1
51 72 1
51 73 1
51 74 1
51 77 1
51 80 1
51 81 1
51 82 1
51 83 1
51 84 1
51 85 1
51 87 1
51 89 1
51 90 1
51 92 1
51 97 1
52 53 1
52 56 1
52 59 1
52 61 1
52 63 1
52 64 1
52 66 1
52 68 1
52 69 1
52 72 1
52 75 1
52 76 1
52 77 1
52 81 1
52 82 1
52 83 1
52 87 1
52 94 1
52 97 1
52 99 1
52 100 1
53 57 1
53 59 1
53 62 1
53 63 1
53 64 1
53 65 1
53 66 1
53 68 1
53 71 1
53 73 1
53 74 1
53 75 1
53 76 1
53 77 1
53 78 1
53 81 1
53 82 1
53 83 1
53 84 1
53 87 1
53 92 1
53 93 1
53 94 1
53 98 1
53 99 1
54 55 1
54 56 1
54 60 1
54 61 1
54 62 1
54 65 1
54 67 1
54 68 1
54 69 1
54 74 1
54 78 1
54 81 1
54 83 1
54 85 1
54 86 1
54 89 1
54 91 1
54 92 1
54 94 1
54 95 1
54 97 1
55 58 1
55 59 1
55 60 1
55 61 1
55 63 1
55 66 1
55 73 1
55 76 1
55 77 1
55 85 1
55 87 1
55 90 1
55 92 1
55 93 1
55 94 1
55 95 1
55 98 1
55 100 1
56 57 1
56 58 1
56 61 1
56 62 1
56 63 1
56 64 1
56 65 1
56 69 1
56 72 1
56 74 1
56 75 1
56 77 1
56 80 1
56 82 1
56 84 1
56 88 1
56 89 1
56 91 1
56 94 1
56 96 1
56 97 1
56 99 1
56 100 1
57 61 1
57 62 1
57 63 1
57 64 1
57 65 1
57 67 1
57 68 1
57 69 1
57 70 1
57 72 1
57 74 1
57 76 1
57 78 1
57 79 1
57 80 1
57 81 1
57 82 1
57 83 1
57 84 1
57 85 1
57 86 1
57 87 1
57 88 1
57 89 1
57 91 1
57 92 1
57 93 1
57 94 1
57 95 1
57 98 1
57 99 1
58 59 1
58 60 1
58 61 1
58 63 1
58 66 1
58 67 1
58 68 1
58 70 1
58 72 1
58 74 1
58 77 1
58 78 1
58 80 1
58 81 1
58 83 1
58 84 1
58 88 1
58 90 1
58 96 1
58 98 1
58 99 1
58 100 1
59 60 1
59 62 1
59 65 1
59 66 1
59 68 1
59 69 1
59 70 1
59 71 1
59 74 1
59 80 1
59 84 1
59 87 1
59 90 1
59 91 1
59 92 1
59 93 1
59 94 1
59 96 1
59 98 1
59 99 1
60 61 1
60 62 1
60 63 1
60 64 1
60 65 1
60 66 1
60 67 1
60 68 1
60 71 1
60 72 1
60 73 1
60 75 1
60 77 1
60 80 1
60 84 1
60 85 1
60 88 1
60 91 1
60 92 1
60 94 1
60 97 1
60 99 1
61 63 1
61 66 1
61 68 1
61 69 1
61 70 1
61 73 1
61 74 1
61 75 1
61 76 1
61 78 1
61 79 1
61 82 1
61 83 1
61 84 1
61 86 1
61 92 1
61 95 1
61 97 1
61 98 1
61 99 1
61 100 1
62 63 1
62 65 1
62 66 1
62 67 1
62 68 1
62 69 1
62 70 1
62 71 1
62 73 1
62 76 1
62 83 1
62 85 1
62 87 1
62 90 1
62 91 1
62 97 1
62 99 1
62 100 1
63 64 1
63 66 1
63 68 1
63 71 1
63 72 1
63 75 1
63 76 1
63 78 1
63 79 1
63 80 1
63 81 1
63 86 1
63 87 1
63 89 1
63 90 1
63 91 1
63 92 1
63 95 1
63 97 1
63 99 1
64 69 1
64 73 1
64 75 1
64 77 1
64 81 1
64 82 1
64 88 1
64 89 1
64 91 1
64 92 1
64 93 1
64 94 1
64 96 1
64 97 1
64 98 1
64 99 1
64 100 1
65 66 1
65 67 1
65 68 1
65 73 1
65 75 1
65 76 1
65 77 1
65 81 1
65 82 1
65 86 1
65 88 1
65 89 1
65 90 1
65 91 1
65 93 1
65 94 1
65 95 1
65 96 1
65 97 1
65 98 1
65 99 1
66 67 1
66 74 1
66 76 1
66 77 1
66 80 1
66 82 1
66 83 1
66 85 1
66 87 1
66 90 1
66 93 1
66 95 1
66 100 1
67 69 1
67 71 1
67 72 1
67 74 1
67 75 1
67 76 1
67 77 1
67 78 1
67 81 1
67 83 1
67 89 1
67 92 1
67 93 1
67 98 1
68 69 1
68 70 1
68 72 1
68 74 1
68 75 1
68 76 1
68 78 1
68 80 1
68 84 1
68 85 1
68 86 1
68 88 1
68 89 1
68 93 1
68 94 1
68 96 1
68 97 1
68 98 1
68 99 1
68 100 1
69 70 1
69 76 1
69 78 1
69 80 1
69 82 1
69 84 1
69 85 1
69 86 1
69 87 1
69 91 1
69 96 1
69 97 1
69 99 1
70 71 1
70 73 1
70 76 1
70 77 1
70 79 1
70 81 1
70 84 1
70 85 1
70 87 1
70 89 1
70 91 1
70 96 1
70 97 1
70 98 1
70 100 1
71 75 1
71 77 1
71 78 1
71 79 1
71 82 1
71 84 1
71 85 1
71 87 1
71 90 1
71 91 1
71 92 1
71 99 1
71 100 1
72 73 1
72 76 1
72 77 1
72 78 1
72 81 1
72 83 1
72 84 1
72 85 1
72 86 1
72 88 1
72 91 1
72 94 1
72 95 1
72 97 1
72 98 1
72 99 1
72 100 1
73 76 1
73 77 1
73 78 1
73 79 1
73 81 1
73 84 1
73 85 1
73 86 1
73 89 1
73 90 1
73 94 1
73 96 1
73 98 1
73 100 1
74 75 1
74 77 1
74 78 1
74 79 1
74 82 1
74 84 1
74 86 1
74 87 1
74 88 1
74 89 1
74 90 1
74 91 1
74 94 1
74 95 1
74 98 1
75 78 1
75 83 1
75 86 1
75 88 1
75 91 1
75 94 1
75 95 1
75 98 1
75 99 1
75 100 1
76 77 1
76 79 1
76 80 1
76 82 1
76 84 1
76 87 1
76 89 1
76 90 1
76 91 1
76 92 1
76 93 1
76 94 1
76 96 1
76 97 1
76 98 1
77 80 1
77 82 1
77 83 1
77 84 1
77 85 1
77 86 1
77 89 1
77 98 1
77 99 1
78 79 1
78 80 1
78 82 1
78 87 1
78 89 1
78 90 1
78 93 1
78 94 1
78 95 1
78 98 1
79 80 1
79 81 1
79 84 1
79 87 1
79 89 1
79 90 1
79 93 1
79 96 1
79 97 1
79 98 1
79 99 1
80 81 1
80 85 1
80 88 1
80 90 1
80 93 1
80 94 1
80 95 1
80 96 1
80 97 1
80 98 1
80 99 1
80 100 1
81 82 1
81 83 1
81 84 1
81 86 1
81 88 1
81 89 1
81 90 1
81 93 1
81 95 1
82 83 1
82 85 1
82 87 1
82 89 1
82 90 1
82 91 1
82 95 1
82 98 1
82 100 1
83 87 1
83 88 1
83 89 1
83 90 1
83 92 1
83 93 1
83 94 1
83 97 1
83 99 1
84 85 1
84 86 1
84 87 1
84 89 1
84 90 1
84 91 1
84 92 1
84 93 1
84 94 1
84 98 1
84 99 1
85 88 1
85 89 1
85 92 1
85 94 1
85 97 1
85 98 1
85 99 1
85 100 1
86 87 1
86 88 1
86 89 1
86 90 1
86 91 1
86 92 1
86 95 1
86 96 1
86 97 1
86 99 1
86 100 1
87 90 1
87 93 1
87 95 1
87 96 1
87 99 1
88 90 1
88 95 1
88 97 1
88 98 1
88 99 1
89 90 1
89 91 1
89 92 1
89 94 1
89 95 1
90 92 1
90 94 1
90 96 1
90 98 1
90 99 1
90 100 1
91 96 1
92 98 1
92 99 1
92 100 1
93 97 1
93 98 1
93 99 1
93 100 1
94 95 1
94 96 1
94 98 1
94 99 1
95 96 1
95 99 1
95 100 1
96 99 1
96 100 1
97 98 1
97 99 1
97 100 1
98 99 1
98 100 1
99 100 1
